\ This file has been generated by DOcplex
\ ENCODING=ISO-8859-1
\Problem name: P3

Minimize
 obj: 6 x_PM4_s3 + 6 x_PM4_s2 + 6 x_PM4_s1 + 6 x_PM1_s3 + 6 x_PM1_s4
      + 6 x_PM2_s3 + x_PM2_s2 + x_PM2_s1 + 5 x_PM2_s4 + 6 x_PM3_s3 + 3 x_PM3_s2
      + 3 x_PM3_s1 + 3 x_PM3_s4
Subject To
 c1_s3: x_PM4_s3 + x_PM1_s3 + x_PM2_s3 + x_PM3_s3 = 1
 c1_s2: x_PM4_s2 + x_PM1_s2 + x_PM2_s2 + x_PM3_s2 = 1
 c1_s1: x_PM4_s1 + x_PM1_s1 + x_PM2_s1 + x_PM3_s1 = 1
 c1_s4: x_PM4_s4 + x_PM1_s4 + x_PM2_s4 + x_PM3_s4 = 1
 c2_PM4: 2 x_PM4_s3 + 2 x_PM4_s2 + 3 x_PM4_s1 + 3 x_PM4_s4 <= 3
 c2_PM1: 2 x_PM1_s3 + 2 x_PM1_s2 + 3 x_PM1_s1 + 3 x_PM1_s4 <= 4
 c2_PM2: 2 x_PM2_s3 + 2 x_PM2_s2 + 3 x_PM2_s1 + 3 x_PM2_s4 <= 5
 c2_PM3: 2 x_PM3_s3 + 2 x_PM3_s2 + 3 x_PM3_s1 + 3 x_PM3_s4 <= 2

Bounds
0 <= x_PM4_s3 <= 1
0 <= x_PM4_s2 <= 1
0 <= x_PM4_s1 <= 1
0 <= x_PM4_s4 <= 1
0 <= x_PM1_s3 <= 1
0 <= x_PM1_s2 <= 1
0 <= x_PM1_s1 <= 1
0 <= x_PM1_s4 <= 1
0 <= x_PM2_s3 <= 1
0 <= x_PM2_s2 <= 1
0 <= x_PM2_s1 <= 1
0 <= x_PM2_s4 <= 1
0 <= x_PM3_s3 <= 1
0 <= x_PM3_s2 <= 1
0 <= x_PM3_s1 <= 1
0 <= x_PM3_s4 <= 1

Binaries
 x_PM4_s3 x_PM4_s2 x_PM4_s1 x_PM4_s4 x_PM1_s3 x_PM1_s2 x_PM1_s1 x_PM1_s4
 x_PM2_s3 x_PM2_s2 x_PM2_s1 x_PM2_s4 x_PM3_s3 x_PM3_s2 x_PM3_s1 x_PM3_s4
End
